# Solution for model 2026-01-22_17-24-28
# Objective value = 726.913957349274
start_0 11
start_1 18
start_2 5
start_3 36
start_4 11
start_5 25
start_6 38
start_7 11
start_8 0
start_9 5
start_10 43
start_11 49
start_12 18
start_13 0
start_14 38
start_15 18
hold_0_1 0
hold_0_2 0
hold_0_3 0
hold_0_4 0
hold_0_5 0
hold_0_6 0
hold_0_7 1
hold_1_1 0
hold_1_2 0
hold_1_3 0
hold_1_4 0
hold_1_5 0
hold_1_6 0
hold_1_7 1
hold_2_1 0
hold_2_2 0
hold_2_3 0
hold_2_4 0
hold_2_5 0
hold_2_6 1
hold_2_7 0
hold_2_8 0
hold_2_9 0
hold_2_10 0
hold_2_11 0
hold_3_1 0
hold_3_2 1
hold_3_3 0
hold_3_4 0
hold_3_5 0
hold_3_6 0
hold_3_7 0
hold_4_1 0
hold_4_2 0
hold_4_3 0
hold_4_4 0
hold_4_5 0
hold_4_6 0
hold_4_7 1
hold_5_1 0
hold_5_2 0
hold_5_3 0
hold_5_4 0
hold_5_5 0
hold_5_6 0
hold_5_7 0
hold_5_8 0
hold_5_9 0
hold_5_10 0
hold_5_11 1
hold_5_12 0
hold_5_13 0
hold_5_14 0
hold_5_15 0
hold_5_16 0
hold_5_17 0
hold_5_18 0
hold_6_1 0
hold_6_2 0
hold_6_3 0
hold_6_4 0
hold_6_5 0
hold_6_6 0
hold_6_7 0
hold_6_8 0
hold_6_9 0
hold_6_10 0
hold_6_11 1
hold_7_1 0
hold_7_2 0
hold_7_3 0
hold_7_4 0
hold_7_5 0
hold_7_6 0
hold_7_7 1
hold_8_1 0
hold_8_2 0
hold_8_3 0
hold_8_4 0
hold_8_5 1
hold_8_6 0
hold_8_7 0
hold_8_8 0
hold_8_9 0
hold_8_10 0
hold_8_11 0
hold_9_1 0
hold_9_2 0
hold_9_3 0
hold_9_4 0
hold_9_5 0
hold_9_6 1
hold_9_7 0
hold_10_1 0
hold_10_2 0
hold_10_3 0
hold_10_4 0
hold_10_5 0
hold_10_6 0
hold_10_7 0
hold_10_8 0
hold_10_9 0
hold_10_10 0
hold_10_11 0
hold_10_12 0
hold_10_13 0
hold_10_14 0
hold_10_15 0
hold_10_16 0
hold_10_17 1
hold_10_18 0
hold_11_1 0
hold_11_2 0
hold_11_3 0
hold_11_4 0
hold_11_5 0
hold_11_6 0
hold_11_7 0
hold_11_8 0
hold_11_9 0
hold_11_10 0
hold_11_11 1
hold_12_1 0
hold_12_2 0
hold_12_3 0
hold_12_4 0
hold_12_5 0
hold_12_6 0
hold_12_7 1
hold_13_1 0
hold_13_2 0
hold_13_3 0
hold_13_4 0
hold_13_5 0
hold_13_6 0
hold_13_7 0
hold_13_8 0
hold_13_9 0
hold_13_10 0
hold_13_11 1
hold_14_1 0
hold_14_2 0
hold_14_3 0
hold_14_4 0
hold_14_5 1
hold_14_6 0
hold_14_7 0
hold_14_8 0
hold_14_9 0
hold_14_10 0
hold_14_11 0
hold_15_1 0
hold_15_2 0
hold_15_3 0
hold_15_4 0
hold_15_5 0
hold_15_6 0
hold_15_7 1
flow_source_0 0
flow_source_1 0
flow_source_2 0
flow_source_3 0
flow_source_4 0
flow_source_5 0
flow_source_6 0
flow_source_7 0
flow_source_8 4.9715871540084015e+02
flow_source_9 0
flow_source_10 0
flow_source_11 0
flow_source_12 0
flow_source_13 2.2975524194843385e+02
flow_source_14 0
flow_source_15 0
flow_0_sink 0
flow_1_sink 0
flow_2_sink 0
flow_3_sink 0
flow_4_sink 0
flow_5_sink 0
flow_6_sink 0
flow_7_sink 0
flow_8_sink 0
flow_9_sink 0
flow_10_sink 497.158715400847
flow_11_sink 2.2975524194842703e+02
flow_12_sink 0
flow_13_sink 0
flow_14_sink 0
flow_15_sink 0
flow_10_14 0
flow_14_10 497.158715400847
flow_3_11 0
flow_11_3 0
flow_8_14 0
flow_14_8 0
flow_11_15 0
flow_15_11 0
flow_3_15 0
flow_15_3 0
flow_0_6 0
flow_6_0 0
flow_2_7 9.7734439108960032e+01
flow_7_2 0
flow_5_6 0
flow_6_5 0
flow_4_13 0
flow_13_4 1.6856138376579713e+02
flow_3_13 0
flow_13_3 0
flow_9_11 0
flow_11_9 0
flow_10_12 0
flow_12_10 0
flow_2_12 0
flow_12_2 0
flow_4_12 0
flow_12_4 0
flow_3_7 0
flow_7_3 0
flow_5_15 0
flow_15_5 1.5892829729159675e+02
flow_1_14 0
flow_14_1 0
flow_4_15 0
flow_15_4 0
flow_1_4 0
flow_4_1 2.8399283002883521e+02
flow_2_10 0
flow_10_2 0
flow_9_12 0
flow_12_9 0
flow_8_13 0
flow_13_8 0
flow_0_13 0
flow_13_0 0
flow_6_11 2.2975524194842703e+02
flow_11_6 0
flow_2_6 0
flow_6_2 0
flow_5_9 0
flow_9_5 0
flow_7_14 0
flow_14_7 0
flow_6_9 0
flow_9_6 0
flow_1_5 2.8399283002884204e+02
flow_5_1 0
flow_2_13 0
flow_13_2 0
flow_13_14 0
flow_14_13 0
flow_0_10 0
flow_10_0 0
flow_7_11 0
flow_11_7 0
flow_3_4 0
flow_4_3 0
flow_4_11 0
flow_11_4 0
flow_5_12 0
flow_12_5 2.8399283002883521e+02
flow_7_13 0
flow_13_7 6.1193858182636717e+01
flow_10_11 0
flow_11_10 0
flow_4_6 0
flow_6_4 0
flow_2_14 0
flow_14_2 0
flow_6_10 0
flow_10_6 0
flow_1_13 0
flow_13_1 0
flow_5_11 0
flow_11_5 0
flow_14_15 0
flow_15_14 0
flow_4_7 0
flow_7_4 0
flow_5_7 0
flow_7_5 0
flow_12_15 0
flow_15_12 0
flow_0_8 0
flow_8_0 0
flow_8_9 1.1543144626303808e+02
flow_9_8 0
flow_0_2 0
flow_2_0 2.8399283002884204e+02
flow_0_12 2.8399283002883521e+02
flow_12_0 0
flow_11_12 0
flow_12_11 0
flow_0_1 0
flow_1_0 0
flow_4_14 0
flow_14_4 0
flow_7_10 0
flow_10_7 0
flow_2_5 0
flow_5_2 0
flow_2_15 0
flow_15_2 0
flow_6_14 0
flow_14_6 0
flow_6_13 0
flow_13_6 0
flow_0_5 0
flow_5_0 0
flow_6_15 0
flow_15_6 0
flow_4_9 0
flow_9_4 1.1543144626303808e+02
flow_10_15 0
flow_15_10 0
flow_0_15 0
flow_15_0 0
flow_1_2 0
flow_2_1 0
flow_8_11 0
flow_11_8 0
flow_7_12 0
flow_12_7 0
flow_4_5 0
flow_5_4 0
flow_2_8 0
flow_8_2 3.8172726913780207e+02
flow_1_15 0
flow_15_1 0
flow_12_13 0
flow_13_12 0
flow_13_15 0
flow_15_13 0
flow_1_7 0
flow_7_1 0
flow_8_12 0
flow_12_8 0
flow_9_13 0
flow_13_9 0
flow_0_7 0
flow_7_0 0
flow_1_6 0
flow_6_1 0
flow_2_9 0
flow_9_2 0
flow_7_15 1.5892829729159675e+02
flow_15_7 0
flow_5_13 0
flow_13_5 0
flow_11_14 0
flow_14_11 0
flow_1_8 0
flow_8_1 0
flow_3_14 4.9715871540084015e+02
flow_14_3 0
flow_0_14 0
flow_14_0 0
flow_8_10 0
flow_10_8 0
flow_9_15 0
flow_15_9 0
flow_3_12 0
flow_12_3 0
flow_3_10 0
flow_10_3 0
flow_1_11 0
flow_11_1 0
flow_0_11 0
flow_11_0 0
flow_2_11 0
flow_11_2 0
flow_6_12 0
flow_12_6 0
flow_12_14 0
flow_14_12 0
flow_3_8 0
flow_8_3 0
flow_3_6 2.2975524194842703e+02
flow_6_3 0
flow_8_15 0
flow_15_8 0
flow_7_8 0
flow_8_7 0
flow_3_5 0
flow_5_3 726.913957349274
flow_10_13 0
flow_13_10 0
flow_0_9 0
flow_9_0 0
flow_6_8 0
flow_8_6 0
flow_0_3 0
flow_3_0 0
flow_2_3 0
flow_3_2 0
flow_7_9 0
flow_9_7 0
flow_1_3 0
flow_3_1 0
flow_6_7 0
flow_7_6 0
flow_5_8 0
flow_8_5 0
flow_1_10 0
flow_10_1 0
flow_5_10 0
flow_10_5 0
flow_3_9 0
flow_9_3 0
flow_1_12 0
flow_12_1 0
flow_2_4 0
flow_4_2 0
flow_1_9 0
flow_9_1 0
flow_5_14 0
flow_14_5 0
flow_4_10 0
flow_10_4 0
flow_11_13 0
flow_13_11 0
flow_0_4 0
flow_4_0 0
flow_9_10 0
flow_10_9 0
flow_9_14 0
flow_14_9 0
flow_4_8 0
flow_8_4 0
switch_source_0 0
switch_source_1 0
switch_source_2 0
switch_source_3 0
switch_source_4 0
switch_source_5 0
switch_source_6 0
switch_source_7 0
switch_source_8 1
switch_source_9 0
switch_source_10 0
switch_source_11 0
switch_source_12 0
switch_source_13 1
switch_source_14 0
switch_source_15 0
switch_0_sink 0
switch_1_sink 0
switch_2_sink 0
switch_3_sink 0
switch_4_sink 0
switch_5_sink 0
switch_6_sink 0
switch_7_sink 0
switch_8_sink 0
switch_9_sink 0
switch_10_sink 1
switch_11_sink 1
switch_12_sink 0
switch_13_sink 0
switch_14_sink 0
switch_15_sink 0
switch_10_14 0
switch_14_10 1
switch_3_11 0
switch_11_3 0
switch_8_14 0
switch_14_8 0
switch_11_15 0
switch_15_11 0
switch_3_15 0
switch_15_3 0
switch_0_6 0
switch_6_0 0
switch_2_7 1
switch_7_2 0
switch_5_6 0
switch_6_5 0
switch_4_13 0
switch_13_4 1
switch_3_13 0
switch_13_3 0
switch_9_11 0
switch_11_9 0
switch_10_12 0
switch_12_10 0
switch_2_12 0
switch_12_2 0
switch_4_12 1
switch_12_4 0
switch_3_7 0
switch_7_3 0
switch_5_15 0
switch_15_5 1
switch_1_14 0
switch_14_1 0
switch_4_15 1
switch_15_4 0
switch_1_4 0
switch_4_1 1
switch_2_10 0
switch_10_2 0
switch_9_12 0
switch_12_9 0
switch_8_13 0
switch_13_8 0
switch_0_13 0
switch_13_0 1
switch_6_11 1
switch_11_6 0
switch_2_6 0
switch_6_2 0
switch_5_9 0
switch_9_5 0
switch_7_14 0
switch_14_7 0
switch_6_9 0
switch_9_6 0
switch_1_5 1
switch_5_1 0
switch_2_13 0
switch_13_2 0
switch_13_14 0
switch_14_13 0
switch_0_10 0
switch_10_0 0
switch_7_11 0
switch_11_7 0
switch_3_4 0
switch_4_3 0
switch_4_11 0
switch_11_4 0
switch_5_12 0
switch_12_5 1
switch_7_13 0
switch_13_7 1
switch_10_11 0
switch_11_10 0
switch_4_6 0
switch_6_4 0
switch_2_14 0
switch_14_2 0
switch_6_10 0
switch_10_6 0
switch_1_13 0
switch_13_1 0
switch_5_11 0
switch_11_5 0
switch_14_15 0
switch_15_14 0
switch_4_7 0
switch_7_4 0
switch_5_7 0
switch_7_5 0
switch_12_15 0
switch_15_12 0
switch_0_8 0
switch_8_0 0
switch_8_9 1
switch_9_8 0
switch_0_2 0
switch_2_0 1
switch_0_12 1
switch_12_0 0
switch_11_12 0
switch_12_11 0
switch_0_1 1
switch_1_0 0
switch_4_14 0
switch_14_4 0
switch_7_10 0
switch_10_7 0
switch_2_5 0
switch_5_2 0
switch_2_15 0
switch_15_2 0
switch_6_14 0
switch_14_6 0
switch_6_13 0
switch_13_6 0
switch_0_5 0
switch_5_0 0
switch_6_15 0
switch_15_6 0
switch_4_9 0
switch_9_4 1
switch_10_15 0
switch_15_10 0
switch_0_15 1
switch_15_0 0
switch_1_2 0
switch_2_1 0
switch_8_11 0
switch_11_8 0
switch_7_12 1
switch_12_7 0
switch_4_5 0
switch_5_4 0
switch_2_8 0
switch_8_2 1
switch_1_15 0
switch_15_1 0
switch_12_13 0
switch_13_12 0
switch_13_15 0
switch_15_13 0
switch_1_7 0
switch_7_1 1
switch_8_12 0
switch_12_8 0
switch_9_13 0
switch_13_9 0
switch_0_7 0
switch_7_0 0
switch_1_6 0
switch_6_1 0
switch_2_9 0
switch_9_2 0
switch_7_15 1
switch_15_7 0
switch_5_13 0
switch_13_5 0
switch_11_14 0
switch_14_11 0
switch_1_8 0
switch_8_1 0
switch_3_14 1
switch_14_3 0
switch_0_14 0
switch_14_0 0
switch_8_10 0
switch_10_8 0
switch_9_15 0
switch_15_9 0
switch_3_12 0
switch_12_3 0
switch_3_10 0
switch_10_3 0
switch_1_11 0
switch_11_1 0
switch_0_11 0
switch_11_0 0
switch_2_11 0
switch_11_2 0
switch_6_12 0
switch_12_6 0
switch_12_14 0
switch_14_12 0
switch_3_8 0
switch_8_3 0
switch_3_6 1
switch_6_3 0
switch_8_15 0
switch_15_8 0
switch_7_8 0
switch_8_7 0
switch_3_5 0
switch_5_3 1
switch_10_13 0
switch_13_10 0
switch_0_9 0
switch_9_0 0
switch_6_8 0
switch_8_6 0
switch_0_3 0
switch_3_0 0
switch_2_3 0
switch_3_2 0
switch_7_9 0
switch_9_7 0
switch_1_3 0
switch_3_1 0
switch_6_7 0
switch_7_6 0
switch_5_8 0
switch_8_5 0
switch_1_10 0
switch_10_1 0
switch_5_10 0
switch_10_5 0
switch_3_9 0
switch_9_3 0
switch_1_12 0
switch_12_1 0
switch_2_4 1
switch_4_2 0
switch_1_9 0
switch_9_1 0
switch_5_14 0
switch_14_5 0
switch_4_10 0
switch_10_4 0
switch_11_13 0
switch_13_11 0
switch_0_4 0
switch_4_0 0
switch_9_10 0
switch_10_9 0
switch_9_14 0
switch_14_9 0
switch_4_8 0
switch_8_4 0
